(set-info :origin "SVCOMP13 benchmarks generated by Arie Gurfinkel")
(set-info :status unsat)
(set-logic HORN)
(declare-fun cp-rel-bb.i98.i (Bool Real Real Real Real Real Real Real) Bool)
(declare-fun cp-rel-entry () Bool)
(declare-fun cp-rel-bb.i98.i.outer
             (Real Real Real Real Real Real Real Real)
             Bool)
(declare-fun cp-rel-T3_WAIT.i.i.i () Bool)
(declare-fun cp-rel-__UFO__0
             (Real
              Real
              Real
              Real
              Real
              Real
              Real
              Bool
              Real
              Real
              Real
              Real
              Real
              Real
              Real
              Real)
             Bool)
(assert |cp-rel-entry|)
(assert (forall ((?A Real) (?B Real) (?C Real) (?D Real) (?E Real) (?F Real) (?G Real) (?H Real) (?I Bool) )(let (($x259677 (= ?I true)))
(let (($x512274 (and |cp-rel-entry| (<= ?H 0.0) (>= ?G 0.0) (<= ?G 0.0) (>= ?F 0.0) (<= ?F 0.0) (>= ?E 0.0) (<= ?E 0.0) (>= ?D 0.0) (<= ?D 0.0) (>= ?C 0.0) (<= ?C 0.0) (>= ?B 0.0) (<= ?B 0.0) (>= ?A 0.0) (<= ?A 0.0) $x259677 (>= ?H 0.0))))
(=> $x512274 (|cp-rel-bb.i98.i.outer| ?A ?B ?C ?D ?E ?F ?G ?H)))))
)
(assert (forall ((?A Real) (?B Real) (?C Real) (?D Real) (?E Real) (?F Real) (?G Real) (?H Real) (?I Bool) (?J Real) (?K Real) (?L Real) (?M Real) (?N Real) (?O Real) (?P Real) (?Q Bool) (?R Bool) (?S Bool) (?T Bool) (?U Bool) (?V Bool) (?W Bool) (?X Bool) (?Y Bool) (?Z Bool) (?A1 Bool) (?B1 Bool) (?C1 Bool) (?D1 Bool) (?E1 Bool) (?F1 Bool) (?G1 Bool) (?H1 Bool) (?I1 Bool) (?J1 Bool) (?K1 Real) (?L1 Real) (?M1 Real) (?N1 Real) (?O1 Bool) (?P1 Bool) (?Q1 Bool) (?R1 Bool) (?S1 Bool) (?T1 Real) (?U1 Real) (?V1 Bool) (?W1 Bool) (?X1 Bool) (?Y1 Bool) (?Z1 Bool) (?A2 Bool) (?B2 Bool) (?C2 Bool) (?D2 Bool) (?E2 Bool) (?F2 Bool) (?G2 Bool) (?H2 Real) (?I2 Real) (?J2 Real) (?K2 Real) (?L2 Bool) (?M2 Bool) (?N2 Bool) (?O2 Bool) (?P2 Bool) (?Q2 Bool) (?R2 Bool) (?S2 Bool) (?T2 Bool) (?U2 Bool) (?V2 Bool) (?W2 Bool) (?X2 Bool) (?Y2 Bool) (?Z2 Real) (?A3 Real) (?B3 Real) (?C3 Real) (?D3 Bool) (?E3 Bool) (?F3 Bool) (?G3 Bool) (?H3 Bool) (?I3 Bool) (?J3 Bool) (?K3 Bool) (?L3 Bool) (?M3 Bool) (?N3 Real) (?O3 Real) (?P3 Bool) (?Q3 Bool) (?R3 Bool) (?S3 Bool) (?T3 Bool) (?U3 Bool) (?V3 Bool) (?W3 Bool) (?X3 Bool) (?Y3 Bool) (?Z3 Bool) (?A4 Bool) (?B4 Bool) (?C4 Bool) (?D4 Bool) (?E4 Bool) (?F4 Bool) (?G4 Bool) (?H4 Real) (?I4 Bool) (?J4 Real) (?K4 Real) )(let (($x176594 (>= ?M1 ?N)))
(let (($x642062 (<= ?M1 ?N)))
(let (($x455944 (and ?U ?Q1 ?B1 (<= ?K1 ?J) (>= ?K1 ?J) (<= ?L1 ?M) (>= ?L1 ?M) $x642062 $x176594)))
(let (($x558581 (and ?Q ?P1 ?Y (<= ?K1 ?J) (>= ?K1 ?J) (<= ?L1 ?M) (>= ?L1 ?M) $x642062 $x176594)))
(let (($x439202 (and ?W ?O1 ?E1 (<= ?K1 1.0) (>= ?K1 1.0) (<= ?L1 2.0) (>= ?L1 2.0) $x642062 $x176594)))
(let (($x615296 (and ?C1 ?J1 (<= ?K1 1.0) (>= ?K1 1.0) (<= ?L1 2.0) (>= ?L1 2.0) (<= ?M1 ?N1) (>= ?M1 ?N1))))
(let (($x227120 (or (not ?I1) (and ?J1 (not ?O1) (not ?P1) (not ?Q1)) (and ?O1 (not ?J1) (not ?P1) (not ?Q1)) (and ?P1 (not ?J1) (not ?O1) (not ?Q1)) (and ?Q1 (not ?J1) (not ?O1) (not ?P1)))))
(let (($x568725 (or (not ?R1) (and ?F1 ?S1 (<= ?T1 ?U1) (>= ?T1 ?U1)) (and ?Z ?V1 ?H1 (<= ?T1 ?M) (>= ?T1 ?M)))))
(let (($x503269 (not ?Z1)))
(let (($x624303 (or $x503269 ?A2)))
(let (($x140416 (>= ?J2 ?O)))
(let (($x922483 (<= ?J2 ?O)))
(let (($x610855 (not ?Y1)))
(let (($x413550 (and ?I1 ?N2 $x610855 (<= ?H2 ?K) (>= ?H2 ?K) (<= ?I2 ?M1) (>= ?I2 ?M1) $x922483 $x140416)))
(let (($x49278 (and ?W1 ?M2 ?B2 (<= ?H2 ?K) (>= ?H2 ?K) (<= ?I2 ?M1) (>= ?I2 ?M1) $x922483 $x140416)))
(let (($x838338 (not ?E2)))
(let (($x90753 (and ?Z1 ?L2 $x838338 (<= ?H2 1.0) (>= ?H2 1.0) (<= ?I2 2.0) (>= ?I2 2.0) $x922483 $x140416)))
(let (($x849252 (and ?C2 ?G2 (<= ?H2 1.0) (>= ?H2 1.0) (<= ?I2 2.0) (>= ?I2 2.0) (<= ?J2 ?K2) (>= ?J2 ?K2))))
(let (($x890684 (not ?F2)))
(let (($x596703 (or $x890684 (and ?G2 (not ?L2) (not ?M2) (not ?N2)) (and ?L2 (not ?G2) (not ?M2) (not ?N2)) (and ?M2 (not ?G2) (not ?L2) (not ?N2)) (and ?N2 (not ?G2) (not ?L2) (not ?M2)))))
(let (($x376624 (not ?O2)))
(let (($x404005 (or $x376624 ?P2)))
(let (($x465706 (not ?R2)))
(let (($x296498 (or $x465706 ?S2)))
(let (($x543438 (>= ?B3 ?P)))
(let (($x562821 (<= ?B3 ?P)))
(let (($x275971 (not ?Q2)))
(let (($x240291 (and ?F2 ?F3 $x275971 (<= ?Z2 ?L) (>= ?Z2 ?L) (<= ?A3 ?J2) (>= ?A3 ?J2) $x562821 $x543438)))
(let (($x140238 (and ?O2 ?E3 ?T2 (<= ?Z2 ?L) (>= ?Z2 ?L) (<= ?A3 ?J2) (>= ?A3 ?J2) $x562821 $x543438)))
(let (($x309217 (not ?W2)))
(let (($x611350 (and ?R2 ?D3 $x309217 (<= ?Z2 1.0) (>= ?Z2 1.0) (<= ?A3 2.0) (>= ?A3 2.0) $x562821 $x543438)))
(let (($x270503 (and ?U2 ?Y2 (<= ?Z2 1.0) (>= ?Z2 1.0) (<= ?A3 2.0) (>= ?A3 2.0) (<= ?B3 ?C3) (>= ?B3 ?C3))))
(let (($x537698 (not ?X2)))
(let (($x838299 (or $x537698 (and ?Y2 (not ?D3) (not ?E3) (not ?F3)) (and ?D3 (not ?Y2) (not ?E3) (not ?F3)) (and ?E3 (not ?Y2) (not ?D3) (not ?F3)) (and ?F3 (not ?Y2) (not ?D3) (not ?E3)))))
(let (($x607082 (not ?G3)))
(let (($x41245 (or $x607082 ?H3)))
(let (($x22718 (not ?J3)))
(let (($x920671 (or $x22718 ?K3)))
(let (($x349179 (and ?J3 (not ?I) (<= ?A ?K1) (>= ?A ?K1) (<= ?B ?H2) (>= ?B ?H2) (<= ?C ?Z2) (>= ?C ?Z2) (<= ?D 1.0) (>= ?D 1.0) (<= ?E ?L1) (>= ?E ?L1) (<= ?F ?I2) (>= ?F ?I2) (<= ?G ?A3) (>= ?G ?A3) (<= ?H 2.0) (>= ?H 2.0))))
(let (($x340914 (and ?R1 ?M3 (<= ?A ?J) (>= ?A ?J) (<= ?B ?K) (>= ?B ?K) (<= ?C ?L) (>= ?C ?L) (<= ?D ?N3) (>= ?D ?N3) (<= ?E ?T1) (>= ?E ?T1) (<= ?F ?N) (>= ?F ?N) (<= ?G ?O) (>= ?G ?O) (<= ?H ?P) (>= ?H ?P))))
(let (($x110751 (and (|cp-rel-bb.i98.i| ?I ?J ?K ?L ?M ?N ?O ?P) (= ?I3 (= ?B3 0.0)) (= ?C3 (ite ?I 0.0 ?P)) (= ?W2 (= ?L 1.0)) (= ?T2 (= ?J4 0.0)) (= ?Q2 (= ?J2 0.0)) (= ?K2 (ite ?I4 0.0 ?O)) (= ?I4 (= ?L 1.0)) (= ?E2 (= ?K 1.0)) (= ?B2 (= ?H4 0.0)) (= ?M3 (or ?G4 ?E4)) (= ?G4 (or ?F4 ?D4)) (= ?F4 (or ?C4 ?B4)) (= ?E4 (= ?P 0.0)) (= ?D4 (= ?O 0.0)) (= ?C4 (= ?N 0.0)) (= ?B4 (= ?T1 0.0)) (= ?Y1 (= ?M1 0.0)) (= ?U1 (ite ?A4 0.0 ?M)) (= ?A4 (= ?J 1.0)) (= ?N1 (ite ?Z3 0.0 ?N)) (= ?Z3 (= ?K 1.0)) (= ?H1 (or ?Y3 ?W3)) (= ?Y3 (or ?X3 ?V3)) (= ?X3 (or ?U3 ?T3)) (= ?W3 (= ?P 0.0)) (= ?V3 (= ?O 0.0)) (= ?U3 (= ?N 0.0)) (= ?T3 (= ?M 0.0)) (= ?E1 (= ?J 1.0)) (= ?B1 (or ?S3 ?R3)) (= ?S3 (or ?Q3 ?P3)) (= ?R3 (= ?P 0.0)) (= ?Q3 (= ?O 0.0)) (= ?P3 (= ?N 0.0)) (= ?Y (= ?O3 0.0)) (= ?T (= ?M 0.0)) (or $x340914 $x349179) $x920671 (or $x22718 (and ?G3 ?K3 (not ?L3))) $x41245 (or $x607082 (and ?X2 ?H3 ?I3)) $x838299 (or $x537698 $x270503 $x611350 $x140238 $x240291) (or (not ?U2) ?V2) (or (not ?U2) (and ?R2 ?V2 ?W2)) $x296498 (or $x465706 (and ?O2 ?S2 (not ?T2))) $x404005 (or $x376624 (and ?F2 ?P2 ?Q2)) $x596703 (or $x890684 $x849252 $x90753 $x49278 $x413550) (or (not ?C2) ?D2) (or (not ?C2) (and ?Z1 ?D2 ?E2)) $x624303 (or $x503269 (and ?W1 ?A2 (not ?B2))) (or (not ?W1) ?X1) (or (not ?W1) (and ?I1 ?X1 ?Y1)) (or (not ?R1) (and ?S1 (not ?V1)) (and ?V1 (not ?S1))) $x568725 $x227120 (or (not ?I1) $x615296 $x439202 $x558581 $x455944) (or (not ?F1) ?G1) (or (not ?F1) (and ?Z ?G1 (not ?H1))) (or (not ?C1) ?D1) (or (not ?C1) (and ?W ?D1 (not ?E1))) (or (not ?Z) ?A1) (or (not ?Z) (and ?U ?A1 (not ?B1))) (or (not ?W) ?X) (or (not ?W) (and ?Q ?X (not ?Y))) (or (not ?U) ?V) (or (not ?U) (and ?R ?V (not ?T))) (or (not ?Q) ?S) (or (not ?Q) (and ?R ?S ?T)) (= ?L3 (= ?K4 0.0)))))
(=> $x110751 (|cp-rel-bb.i98.i.outer| ?A ?B ?C ?D ?E ?F ?G ?H))))))))))))))))))))))))))))))))))))))))))))
)
(assert (forall ((?A Real) (?B Real) (?C Real) (?D Real) (?E Real) (?F Real) (?G Real) (?H Real) (?I Bool) (?J Real) (?K Real) (?L Real) (?M Real) (?N Real) (?O Real) (?P Real) (?Q Bool) )(let (($x259677 (= ?Q true)))
(let (($x107226 (and (|cp-rel-bb.i98.i.outer| ?A ?B ?C ?D ?E ?F ?G ?H) (>= ?P ?H) (<= ?P ?H) (>= ?O ?G) (<= ?O ?G) (>= ?N ?F) (<= ?N ?F) (>= ?M ?E) (<= ?M ?E) (>= ?L ?C) (<= ?L ?C) (>= ?K ?B) (<= ?K ?B) (>= ?J ?A) (<= ?J ?A) $x259677 (= ?I (= ?D 1.0)))))
(=> $x107226 (|cp-rel-bb.i98.i| ?I ?J ?K ?L ?M ?N ?O ?P)))))
)
(assert (forall ((?A Bool) (?B Real) (?C Real) (?D Real) (?E Real) (?F Real) (?G Real) (?H Real) (?I Bool) (?J Bool) (?K Bool) (?L Bool) (?M Bool) (?N Bool) (?O Bool) (?P Bool) (?Q Bool) (?R Bool) (?S Bool) (?T Bool) (?U Bool) (?V Bool) (?W Bool) (?X Real) (?Y Real) (?Z Real) (?A1 Real) (?B1 Bool) (?C1 Bool) (?D1 Bool) (?E1 Bool) (?F1 Bool) (?G1 Bool) (?H1 Bool) (?I1 Bool) (?J1 Bool) (?K1 Bool) (?L1 Bool) (?M1 Bool) (?N1 Bool) (?O1 Bool) (?P1 Real) (?Q1 Real) (?R1 Real) (?S1 Real) (?T1 Bool) (?U1 Bool) (?V1 Bool) (?W1 Bool) (?X1 Bool) (?Y1 Bool) (?Z1 Bool) (?A2 Bool) (?B2 Bool) (?C2 Bool) (?D2 Bool) (?E2 Bool) (?F2 Bool) (?G2 Bool) (?H2 Real) (?I2 Real) (?J2 Real) (?K2 Real) (?L2 Bool) (?M2 Bool) (?N2 Bool) (?O2 Bool) (?P2 Bool) (?Q2 Bool) (?R2 Bool) (?S2 Real) (?T2 Bool) (?U2 Bool) (?V2 Bool) (?W2 Bool) (?X2 Bool) (?Y2 Real) (?Z2 Bool) (?A3 Real) (?B3 Real) (?C3 Real) (?D3 Real) (?E3 Real) (?F3 Real) (?G3 Real) (?H3 Real) (?I3 Real) )(let (($x342263 (>= ?Z ?F)))
(let (($x382801 (<= ?Z ?F)))
(let (($x454872 (and ?M ?D1 ?R (<= ?X ?B) (>= ?X ?B) (<= ?Y ?E) (>= ?Y ?E) $x382801 $x342263)))
(let (($x458768 (and ?I ?C1 ?Q (<= ?X ?B) (>= ?X ?B) (<= ?Y ?E) (>= ?Y ?E) $x382801 $x342263)))
(let (($x470797 (and ?O ?B1 ?U (<= ?X 1.0) (>= ?X 1.0) (<= ?Y 2.0) (>= ?Y 2.0) $x382801 $x342263)))
(let (($x906948 (and ?S ?W (<= ?X 1.0) (>= ?X 1.0) (<= ?Y 2.0) (>= ?Y 2.0) (<= ?Z ?A1) (>= ?Z ?A1))))
(let (($x105739 (not ?V)))
(let (($x122492 (or $x105739 (and ?W (not ?B1) (not ?C1) (not ?D1)) (and ?B1 (not ?W) (not ?C1) (not ?D1)) (and ?C1 (not ?W) (not ?B1) (not ?D1)) (and ?D1 (not ?W) (not ?B1) (not ?C1)))))
(let (($x238983 (>= ?R1 ?G)))
(let (($x283401 (<= ?R1 ?G)))
(let (($x214691 (not ?G1)))
(let (($x467027 (and ?V ?V1 $x214691 (<= ?P1 ?C) (>= ?P1 ?C) (<= ?Q1 ?Z) (>= ?Q1 ?Z) $x283401 $x238983)))
(let (($x301803 (and ?E1 ?U1 ?J1 (<= ?P1 ?C) (>= ?P1 ?C) (<= ?Q1 ?Z) (>= ?Q1 ?Z) $x283401 $x238983)))
(let (($x376624 (not ?M1)))
(let (($x873446 (and ?H1 ?T1 $x376624 (<= ?P1 1.0) (>= ?P1 1.0) (<= ?Q1 2.0) (>= ?Q1 2.0) $x283401 $x238983)))
(let (($x107498 (and ?K1 ?O1 (<= ?P1 1.0) (>= ?P1 1.0) (<= ?Q1 2.0) (>= ?Q1 2.0) (<= ?R1 ?S1) (>= ?R1 ?S1))))
(let (($x257017 (or (not ?N1) (and ?O1 (not ?T1) (not ?U1) (not ?V1)) (and ?T1 (not ?O1) (not ?U1) (not ?V1)) (and ?U1 (not ?O1) (not ?T1) (not ?V1)) (and ?V1 (not ?O1) (not ?T1) (not ?U1)))))
(let (($x474124 (not ?Z1)))
(let (($x870264 (or $x474124 ?A2)))
(let (($x99700 (not ?C2)))
(let (($x418787 (or $x99700 ?D2)))
(let (($x870670 (>= ?J2 ?H)))
(let (($x225532 (<= ?J2 ?H)))
(let (($x637041 (not ?Y1)))
(let (($x413125 (and ?N1 ?N2 $x637041 (<= ?H2 ?D) (>= ?H2 ?D) (<= ?I2 ?R1) (>= ?I2 ?R1) $x225532 $x870670)))
(let (($x173333 (and ?W1 ?M2 ?B2 (<= ?H2 ?D) (>= ?H2 ?D) (<= ?I2 ?R1) (>= ?I2 ?R1) $x225532 $x870670)))
(let (($x607082 (not ?E2)))
(let (($x587467 (and ?Z1 ?L2 $x607082 (<= ?H2 1.0) (>= ?H2 1.0) (<= ?I2 2.0) (>= ?I2 2.0) $x225532 $x870670)))
(let (($x220232 (and ?C2 ?G2 (<= ?H2 1.0) (>= ?H2 1.0) (<= ?I2 2.0) (>= ?I2 2.0) (<= ?J2 ?K2) (>= ?J2 ?K2))))
(let (($x330247 (not ?F2)))
(let (($x187720 (or $x330247 (and ?G2 (not ?L2) (not ?M2) (not ?N2)) (and ?L2 (not ?G2) (not ?M2) (not ?N2)) (and ?M2 (not ?G2) (not ?L2) (not ?N2)) (and ?N2 (not ?G2) (not ?L2) (not ?M2)))))
(let (($x834077 (not ?Q2)))
(let (($x264035 (and ?F2 $x834077 (<= ?C3 ?X) (>= ?C3 ?X) (<= ?D3 ?P1) (>= ?D3 ?P1) (<= ?E3 ?H2) (>= ?E3 ?H2) (<= ?F3 ?Y) (>= ?F3 ?Y) (<= ?G3 ?Q1) (>= ?G3 ?Q1) (<= ?H3 ?I2) (>= ?H3 ?I2) (<= ?I3 ?J2) (>= ?I3 ?J2))))
(let (($x494381 (and ?O2 ?R2 (<= ?C3 ?X) (>= ?C3 ?X) (<= ?D3 ?P1) (>= ?D3 ?P1) (<= ?E3 ?H2) (>= ?E3 ?H2) (<= ?F3 ?Y) (>= ?F3 ?Y) (<= ?G3 ?Q1) (>= ?G3 ?Q1) (<= ?H3 ?I2) (>= ?H3 ?I2) (<= ?I3 ?J2) (>= ?I3 ?J2))))
(let (($x840478 (and (|cp-rel-bb.i98.i| ?A ?B ?C ?D ?E ?F ?G ?H) (= ?Q2 (= ?J2 0.0)) (= ?K2 (ite ?A 0.0 ?H)) (= ?E2 (= ?D 1.0)) (= ?B2 (= ?A3 0.0)) (= ?Y1 (= ?R1 0.0)) (= ?S1 (ite ?Z2 0.0 ?G)) (= ?Z2 (= ?D 1.0)) (= ?M1 (= ?C 1.0)) (= ?J1 (= ?Y2 0.0)) (= ?G1 (= ?Z 0.0)) (= ?A1 (ite ?X2 0.0 ?F)) (= ?X2 (= ?C 1.0)) (= ?U (= ?B 1.0)) (= ?R (or ?W2 ?V2)) (= ?W2 (or ?U2 ?T2)) (= ?V2 (= ?H 0.0)) (= ?U2 (= ?G 0.0)) (= ?T2 (= ?F 0.0)) (= ?Q (= ?S2 0.0)) (= ?L (= ?E 0.0)) (or $x494381 $x264035) (or (not ?O2) ?P2) (or (not ?O2) (and ?F2 ?P2 ?Q2)) $x187720 (or $x330247 $x220232 $x587467 $x173333 $x413125) $x418787 (or $x99700 (and ?Z1 ?D2 ?E2)) $x870264 (or $x474124 (and ?W1 ?A2 (not ?B2))) (or (not ?W1) ?X1) (or (not ?W1) (and ?N1 ?X1 ?Y1)) $x257017 (or (not ?N1) $x107498 $x873446 $x301803 $x467027) (or (not ?K1) ?L1) (or (not ?K1) (and ?H1 ?L1 ?M1)) (or (not ?H1) ?I1) (or (not ?H1) (and ?E1 ?I1 (not ?J1))) (or (not ?E1) ?F1) (or (not ?E1) (and ?V ?F1 ?G1)) $x122492 (or $x105739 $x906948 $x470797 $x458768 $x454872) (or (not ?S) ?T) (or (not ?S) (and ?O ?T (not ?U))) (or (not ?O) ?P) (or (not ?O) (and ?I ?P (not ?Q))) (or (not ?M) ?N) (or (not ?M) (and ?J ?N (not ?L))) (or (not ?I) ?K) (or (not ?I) (and ?J ?K ?L)) (= ?R2 (= ?B3 0.0)))))
(=> $x840478 (|cp-rel-bb.i98.i| ?A ?C3 ?D3 ?E3 ?F3 ?G3 ?H3 ?I3))))))))))))))))))))))))))))))))))))))
)
(assert (forall ((?A Bool) (?B Real) (?C Real) (?D Real) (?E Real) (?F Real) (?G Real) (?H Real) (?I Bool) (?J Bool) (?K Bool) (?L Bool) (?M Bool) (?N Bool) (?O Bool) (?P Bool) (?Q Bool) (?R Bool) (?S Bool) (?T Bool) (?U Real) (?V Real) (?W Bool) (?X Bool) (?Y Bool) (?Z Bool) (?A1 Bool) (?B1 Bool) (?C1 Bool) (?D1 Bool) (?E1 Bool) (?F1 Bool) (?G1 Bool) (?H1 Bool) (?I1 Bool) (?J1 Bool) (?K1 Bool) (?L1 Bool) (?M1 Bool) (?N1 Bool) (?O1 Bool) (?P1 Real) (?Q1 Real) (?R1 Real) (?S1 Real) (?T1 Real) (?U1 Real) (?V1 Real) )(let (($x83947 (|cp-rel-__UFO__0| ?P1 ?Q1 ?R1 ?S1 ?T1 ?U1 ?V1 ?A ?B ?C ?D ?E ?F ?G ?H ?U)))
(let (($x474124 (not ?M)))
(let (($x870264 (or $x474124 ?N)))
(let (($x99700 (not ?P)))
(let (($x418787 (or $x99700 ?Q)))
(let (($x330247 (not ?S)))
(let (($x109632 (or $x330247 (and ?P ?T (<= ?U ?V) (>= ?U ?V)) (and ?M ?W ?R (<= ?U ?E) (>= ?U ?E)))))
(let (($x221510 (and (|cp-rel-bb.i98.i| ?A ?B ?C ?D ?E ?F ?G ?H) (= ?O1 (or ?N1 ?L1)) (= ?N1 (or ?K1 ?J1)) (= ?M1 (= ?H 0.0)) (= ?L1 (= ?G 0.0)) (= ?K1 (= ?F 0.0)) (= ?J1 (= ?U 0.0)) (= ?V (ite ?I1 0.0 ?E)) (= ?I1 (= ?B 1.0)) (= ?R (or ?H1 ?F1)) (= ?H1 (or ?G1 ?E1)) (= ?G1 (or ?D1 ?C1)) (= ?F1 (= ?H 0.0)) (= ?E1 (= ?G 0.0)) (= ?D1 (= ?F 0.0)) (= ?C1 (= ?E 0.0)) (= ?O (or ?B1 ?A1)) (= ?B1 (or ?Z ?Y)) (= ?A1 (= ?H 0.0)) (= ?Z (= ?G 0.0)) (= ?Y (= ?F 0.0)) (= ?J (= ?E 0.0)) (not (= ?X true)) (= ?S true) (or $x330247 (and ?T (not ?W)) (and ?W (not ?T))) $x109632 $x418787 (or $x99700 (and ?M ?Q (not ?R))) $x870264 (or $x474124 (and ?K ?N (not ?O))) (or (not ?K) ?L) (or (not ?K) (and ?I ?L (not ?J))) (= ?X (or ?O1 ?M1)))))
(=> $x221510 $x83947))))))))))
)
(assert (forall ((?A Bool) (?B Real) (?C Real) (?D Real) (?E Real) (?F Real) (?G Real) (?H Real) (?I Real) (?J Real) (?K Real) (?L Real) (?M Real) (?N Real) (?O Real) (?P Real) (?Q Bool) )(let (($x477243 (|cp-rel-__UFO__0| ?C ?D ?E ?F ?G ?H ?I ?A ?J ?K ?L ?M ?N ?O ?P ?B)))
(=> (and $x477243 (= ?Q true)) $x477243)))
)
(assert (forall ((?A Bool) (?B Real) (?C Real) (?D Real) (?E Real) (?F Real) (?G Real) (?H Real) (?I Bool) (?J Bool) (?K Bool) (?L Bool) (?M Bool) (?N Bool) (?O Bool) (?P Bool) (?Q Bool) (?R Bool) (?S Bool) (?T Bool) (?U Bool) (?V Bool) (?W Bool) (?X Real) (?Y Real) (?Z Real) (?A1 Real) (?B1 Bool) (?C1 Bool) (?D1 Bool) (?E1 Bool) (?F1 Bool) (?G1 Bool) (?H1 Bool) (?I1 Bool) (?J1 Bool) (?K1 Bool) (?L1 Bool) (?M1 Bool) (?N1 Bool) (?O1 Bool) (?P1 Real) (?Q1 Real) (?R1 Real) (?S1 Real) (?T1 Bool) (?U1 Bool) (?V1 Bool) (?W1 Bool) (?X1 Bool) (?Y1 Bool) (?Z1 Bool) (?A2 Bool) (?B2 Bool) (?C2 Bool) (?D2 Bool) (?E2 Bool) (?F2 Bool) (?G2 Bool) (?H2 Real) (?I2 Real) (?J2 Real) (?K2 Real) (?L2 Bool) (?M2 Bool) (?N2 Bool) (?O2 Bool) (?P2 Bool) (?Q2 Bool) (?R2 Bool) (?S2 Bool) (?T2 Bool) (?U2 Real) (?V2 Bool) (?W2 Bool) (?X2 Bool) (?Y2 Bool) (?Z2 Bool) (?A3 Real) (?B3 Bool) (?C3 Real) (?D3 Real) )(let (($x503269 (not ?S)))
(let (($x624303 (or $x503269 ?T)))
(let (($x159480 (>= ?Z ?F)))
(let (($x468603 (<= ?Z ?F)))
(let (($x481953 (and ?M ?D1 ?R (<= ?X ?B) (>= ?X ?B) (<= ?Y ?E) (>= ?Y ?E) $x468603 $x159480)))
(let (($x411058 (and ?I ?C1 ?Q (<= ?X ?B) (>= ?X ?B) (<= ?Y ?E) (>= ?Y ?E) $x468603 $x159480)))
(let (($x118081 (and ?O ?B1 ?U (<= ?X 1.0) (>= ?X 1.0) (<= ?Y 2.0) (>= ?Y 2.0) $x468603 $x159480)))
(let (($x807961 (and ?S ?W (<= ?X 1.0) (>= ?X 1.0) (<= ?Y 2.0) (>= ?Y 2.0) (<= ?Z ?A1) (>= ?Z ?A1))))
(let (($x110480 (not ?V)))
(let (($x590399 (or $x110480 (and ?W (not ?B1) (not ?C1) (not ?D1)) (and ?B1 (not ?W) (not ?C1) (not ?D1)) (and ?C1 (not ?W) (not ?B1) (not ?D1)) (and ?D1 (not ?W) (not ?B1) (not ?C1)))))
(let (($x376624 (not ?H1)))
(let (($x404005 (or $x376624 ?I1)))
(let (($x465706 (not ?K1)))
(let (($x296498 (or $x465706 ?L1)))
(let (($x380654 (>= ?R1 ?G)))
(let (($x223797 (<= ?R1 ?G)))
(let (($x9660 (not ?G1)))
(let (($x430299 (and ?V ?V1 $x9660 (<= ?P1 ?C) (>= ?P1 ?C) (<= ?Q1 ?Z) (>= ?Q1 ?Z) $x223797 $x380654)))
(let (($x757444 (and ?E1 ?U1 ?J1 (<= ?P1 ?C) (>= ?P1 ?C) (<= ?Q1 ?Z) (>= ?Q1 ?Z) $x223797 $x380654)))
(let (($x646802 (and ?H1 ?T1 (not ?M1) (<= ?P1 1.0) (>= ?P1 1.0) (<= ?Q1 2.0) (>= ?Q1 2.0) $x223797 $x380654)))
(let (($x251549 (and ?K1 ?O1 (<= ?P1 1.0) (>= ?P1 1.0) (<= ?Q1 2.0) (>= ?Q1 2.0) (<= ?R1 ?S1) (>= ?R1 ?S1))))
(let (($x544161 (not ?N1)))
(let (($x847602 (or $x544161 (and ?O1 (not ?T1) (not ?U1) (not ?V1)) (and ?T1 (not ?O1) (not ?U1) (not ?V1)) (and ?U1 (not ?O1) (not ?T1) (not ?V1)) (and ?V1 (not ?O1) (not ?T1) (not ?U1)))))
(let (($x607082 (not ?Z1)))
(let (($x41245 (or $x607082 ?A2)))
(let (($x22718 (not ?C2)))
(let (($x920671 (or $x22718 ?D2)))
(let (($x21658 (>= ?J2 ?H)))
(let (($x28671 (<= ?J2 ?H)))
(let (($x503942 (not ?Y1)))
(let (($x114228 (and ?N1 ?N2 $x503942 (<= ?H2 ?D) (>= ?H2 ?D) (<= ?I2 ?R1) (>= ?I2 ?R1) $x28671 $x21658)))
(let (($x646099 (and ?W1 ?M2 ?B2 (<= ?H2 ?D) (>= ?H2 ?D) (<= ?I2 ?R1) (>= ?I2 ?R1) $x28671 $x21658)))
(let (($x319210 (not ?E2)))
(let (($x623178 (and ?Z1 ?L2 $x319210 (<= ?H2 1.0) (>= ?H2 1.0) (<= ?I2 2.0) (>= ?I2 2.0) $x28671 $x21658)))
(let (($x234146 (and ?C2 ?G2 (<= ?H2 1.0) (>= ?H2 1.0) (<= ?I2 2.0) (>= ?I2 2.0) (<= ?J2 ?K2) (>= ?J2 ?K2))))
(let (($x841952 (or (not ?F2) (and ?G2 (not ?L2) (not ?M2) (not ?N2)) (and ?L2 (not ?G2) (not ?M2) (not ?N2)) (and ?M2 (not ?G2) (not ?L2) (not ?N2)) (and ?N2 (not ?G2) (not ?L2) (not ?M2)))))
(let (($x563478 (and (|cp-rel-bb.i98.i| ?A ?B ?C ?D ?E ?F ?G ?H) (= ?Q2 (= ?J2 0.0)) (= ?K2 (ite ?A 0.0 ?H)) (= ?E2 (= ?D 1.0)) (= ?B2 (= ?C3 0.0)) (= ?Y1 (= ?R1 0.0)) (= ?S1 (ite ?B3 0.0 ?G)) (= ?B3 (= ?D 1.0)) (= ?M1 (= ?C 1.0)) (= ?J1 (= ?A3 0.0)) (= ?G1 (= ?Z 0.0)) (= ?A1 (ite ?Z2 0.0 ?F)) (= ?Z2 (= ?C 1.0)) (= ?U (= ?B 1.0)) (= ?R (or ?Y2 ?X2)) (= ?Y2 (or ?W2 ?V2)) (= ?X2 (= ?H 0.0)) (= ?W2 (= ?G 0.0)) (= ?V2 (= ?F 0.0)) (= ?Q (= ?U2 0.0)) (= ?L (= ?E 0.0)) (= ?A true) (= ?R2 true) (or (not ?R2) ?S2) (or (not ?R2) (and ?O2 ?S2 (not ?T2))) (or (not ?O2) ?P2) (or (not ?O2) (and ?F2 ?P2 ?Q2)) $x841952 (or (not ?F2) $x234146 $x623178 $x646099 $x114228) $x920671 (or $x22718 (and ?Z1 ?D2 ?E2)) $x41245 (or $x607082 (and ?W1 ?A2 (not ?B2))) (or (not ?W1) ?X1) (or (not ?W1) (and ?N1 ?X1 ?Y1)) $x847602 (or $x544161 $x251549 $x646802 $x757444 $x430299) $x296498 (or $x465706 (and ?H1 ?L1 ?M1)) $x404005 (or $x376624 (and ?E1 ?I1 (not ?J1))) (or (not ?E1) ?F1) (or (not ?E1) (and ?V ?F1 ?G1)) $x590399 (or $x110480 $x807961 $x118081 $x411058 $x481953) $x624303 (or $x503269 (and ?O ?T (not ?U))) (or (not ?O) ?P) (or (not ?O) (and ?I ?P (not ?Q))) (or (not ?M) ?N) (or (not ?M) (and ?J ?N (not ?L))) (or (not ?I) ?K) (or (not ?I) (and ?J ?K ?L)) (= ?T2 (= ?D3 0.0)))))
(=> $x563478 |cp-rel-T3_WAIT.i.i.i|)))))))))))))))))))))))))))))))))))))))
)
(assert (not cp-rel-T3_WAIT.i.i.i))
(check-sat)
